8372
28, 12, 51, 33, 43, 4, 25, 46, 48, 24, 5, 6, 15, 38, 37, 40, 39, 35, 36, 34, 44, 16, 50, 20, 23, 31, 18, 22, 1, 49, 32, 45, 19, 10, 9, 8, 41, 3, 17, 21, 42, 2, 7, 30, 29, 47, 26, 27, 11, 52, 14, 13
